Minimize
+ 12050 Y4 + 11981 Y3 + 12157 Y2 + 12092 Y1  + 10 X36  + 0 X35  + 0 X34  + 0 X33  + 17 X32  + 32 X31  + 25 X30  + 0 X29  + 9 X28  + 0 X27  + 10 X26  + 0 X25  + 13 X24  + 0 X23  + 0 X22  + 0 X21  + 34 X20  + 10 X19  + 0 X18  + 0 X17  + 0 X16  + 0 X15  + 0 X14  + 9 X13  + 18 X12  + 17 X11  + 9 X10  + 32 X9  + 0 X8  + 0 X7  + 17 X6  + 19 X5  + 9 X4  + 16 X3  + 0 X2  + 0 X1 
Subject To
 R1: + X31 + X27 + X16 + X9  = 1
 R2: + X28 + X19 + X17 + X4  = 1
 R3: + X36 + X26 + X12 + X3  = 1
 R4: + X34 + X25 + X10 + X6  = 1
 R5: + X35 + X20 + X14 + X7  = 1
 R6: + X30 + X24 + X15 + X1  = 1
 R7: + X33 + X22 + X13 + X8  = 1
 R8: + X29 + X21 + X18 + X2  = 1
 R9: + X32 + X23 + X11 + X5  = 1
 R10:+ Y4 + Y3 + Y2 + Y1  = 1
 R11: - Y4 - Y3 + X36  = 0 
 R12: - Y4 + X35  = 0 
 R13: - Y4 + X34  = 0 
 R14: - Y4 - Y1 + X33  = 0 
 R15: - Y4 - Y3 - Y2 + X32  = 0 
 R16: - Y4 + X31  = 0 
 R17: - Y4 + X30  = 0 
 R18: - Y4 - Y2 + X29  = 0 
 R19: - Y4 - Y1 + X28  = 0 
 R20: - Y3 - Y2 - Y1 + X27  = 0 
 R21: - Y4 - Y3 + X26  = 0 
 R22: - Y3 + X25  = 0 
 R23: - Y3 + X24  = 0 
 R24: - Y4 - Y3 - Y2 + X23  = 0 
 R25: - Y3 + X22  = 0 
 R26: - Y3 + X21  = 0 
 R27: - Y3 + X20  = 0 
 R28: - Y3 + X19  = 0 
 R29: - Y4 - Y2 + X18  = 0 
 R30: - Y2 + X17  = 0 
 R31: - Y3 - Y2 - Y1 + X16  = 0 
 R32: - Y2 + X15  = 0 
 R33: - Y2 + X14  = 0 
 R34: - Y2 + X13  = 0 
 R35: - Y2 + X12  = 0 
 R36: - Y4 - Y3 - Y2 + X11  = 0 
 R37: - Y2 - Y1 + X10  = 0 
 R38: - Y3 - Y2 - Y1 + X9  = 0 
 R39: - Y4 - Y1 + X8  = 0 
 R40: - Y1 + X7  = 0 
 R41: - Y2 - Y1 + X6  = 0 
 R42: - Y1 + X5  = 0 
 R43: - Y4 - Y1 + X4  = 0 
 R44: - Y1 + X3  = 0 
 R45: - Y1 + X2  = 0 
 R46: - Y1 + X1  = 0 
 R47: - Y4 - Y3 + X36  = 0 
 R48: - Y4 - Y3 + X35  = 0 
 R49: - Y4 - Y1 + X34  = 0 
 R50: - Y4 - Y1 + X33  = 0 
 R51: - Y4 - Y2 + X32  = 0 
 R52: - Y4 - Y3 - Y2 + X31  = 0 
 R53: - Y4 + X30  = 0 
 R54: - Y4 - Y2 + X29  = 0 
 R55: - Y4 - Y1 + X28  = 0 
 R56: - Y4 - Y3 - Y2 + X27  = 0 
 R57: - Y4 - Y3 + X26  = 0 
 R58: - Y3 - Y2 + X25  = 0 
 R59: - Y3 - Y2 + X24  = 0 
 R60: - Y3 - Y1 + X23  = 0 
 R61: - Y3 + X22  = 0 
 R62: - Y3 + X21  = 0 
 R63: - Y4 - Y3 + X20  = 0 
 R64: - Y3 + X19  = 0 
 R65: - Y4 - Y2 + X18  = 0 
 R66: - Y2 + X17  = 0 
 R67: - Y4 - Y3 - Y2 + X16  = 0 
 R68: - Y3 - Y2 + X15  = 0 
 R69: - Y2 + X14  = 0 
 R70: - Y2 + X13  = 0 
 R71: - Y2 + X12  = 0 
 R72: - Y4 - Y2 + X11  = 0 
 R73: - Y3 - Y2 + X10  = 0 
 R74: - Y1 + X9  = 0 
 R75: - Y4 - Y1 + X8  = 0 
 R76: - Y1 + X7  = 0 
 R77: - Y4 - Y1 + X6  = 0 
 R78: - Y3 - Y1 + X5  = 0 
 R79: - Y4 - Y1 + X4  = 0 
 R80: - Y1 + X3  = 0 
 R81: - Y1 + X2  = 0 
 R82: - Y1 + X1  = 0 
 R83: + X33 + X22 + X13 + X8  = 1
 R84: + X36 + X26 + X12 + X3  = 1
 R85: + X31 + X27 + X16 + X9  = 1
 R86: + X32 + X23 + X11 + X5  = 1
 R87: + X30 + X20 + X14 + X7  = 1
 R88: + X31 + X25 + X10 + X9  = 1
 R89: + X28 + X19 + X17 + X4  = 1
 R90: + X29 + X21 + X18 + X2  = 1
 R91: + X30 + X24 + X15 + X1  = 1
 R92: + X34 + X20 + X13 + X6  = 1
 R93: + X28 + X19 + X12 + X4  = 1
 R94: + X35 + X20 + X10 + X6  = 1
 R95: + X32 + X24 + X11 + X5  = 1
 R96: + X36 + X26 + X12 + X3  = 1
Bounds
Binary 
Y4 Y3 Y2 Y1 X36 X35 X34 X33 X32 X31 X30 X29 X28 X27 X26 X25 X24 X23 X22 X21 X20 X19 X18 X17 X16 X15 X14 X13 X12 X11 X10 X9 X8 X7 X6 X5 X4 X3 X2 X1 
End
